#######################################
### Exact MIP solver for the HHCRSP ###
#######################################
-- Instance file: new-instances/HHCRSP_25_5_43_1.6_R_C.txt
-- Max threads: 4
-- Time limit: 999999 seconds
-- Use initial solution: No
Trivial flow violations prevented generating 910 variables.
Model exported.
Version identifier: 20.1.0.0 | 2020-11-10 | 9bedb6d68
CPXPARAM_Threads                                 4
CPXPARAM_TimeLimit                               999999
Tried aggregator 1 time.
LP Presolve eliminated 420 rows and 143 columns.
Reduced LP has 1256 rows, 1213 columns, and 8726 nonzeros.
Presolve time = 0.00 sec. (2.78 ticks)
Symmetry aggregator did 1035 additional substitutions.

Iteration log . . .
Iteration:     1   Dual objective     =             0.000000

Dual crossover.
  Dual:  Fixing 19 variables.
       18 DMoves:  Infeasibility  1.14472718e-15  Objective  6.00018267e+01
        0 DMoves:  Infeasibility  1.36677178e-15  Objective  6.00018267e+01
  Dual:  Pushed 3, exchanged 16.
  Primal:  Fixing 18 variables.
       17 PMoves:  Infeasibility  1.11022302e-16  Objective  6.00018267e+01
        0 PMoves:  Infeasibility  1.11022302e-16  Objective  6.00018267e+01
  Primal:  Pushed 6, exchanged 12.

Solution status from MIP model:
-- Processing time: 0.008 sec.
-- Memory used: 14.9561 MB
-- Best bound: inf
-- Obj value: 60.0018
-- Gap: inf%
-- Total distance: 180.005
-- Total tardiness: 0
-- Largest tardiness: 0
